21 72 39 23 67 56 4 26 
6 84 17 5 60 89 
83 45 82 88 
95 92 37 14 44 38 86 16 61 93 94 
50 33 51 9 78 68 80 77 12 
27 69 30 32 90 63 10 70 1 
28 76 3 79 29 24 55 25 54 
53 
40 2 87 97 13 
31 62 11 64 49 19 7 52 
96 99 85 91 100 98 59 
57 42 43 15 41 22 75 74 73 58 
20 71 65 66 35 34 81 
48 47 36 46 8 18 
